100	2475
1	2	1
2	3	1
1	4	1
2	4	1
1	5	1
4	5	1
1	6	1
2	6	1
5	6	1
1	7	1
2	7	1
5	7	1
6	7	1
1	8	1
2	8	1
3	8	1
5	8	1
7	8	1
3	9	1
4	9	1
7	9	1
1	10	1
3	10	1
5	10	1
3	11	1
5	11	1
8	11	1
9	11	1
1	12	1
2	12	1
5	12	1
9	12	1
11	12	1
1	13	1
3	13	1
5	13	1
7	13	1
9	13	1
10	13	1
11	13	1
2	14	1
3	14	1
6	14	1
7	14	1
8	14	1
9	14	1
10	14	1
11	14	1
12	14	1
13	14	1
4	15	1
5	15	1
10	15	1
12	15	1
13	15	1
14	15	1
1	16	1
2	16	1
3	16	1
4	16	1
5	16	1
7	16	1
9	16	1
10	16	1
11	16	1
15	16	1
1	17	1
6	17	1
8	17	1
9	17	1
11	17	1
12	17	1
15	17	1
2	18	1
4	18	1
6	18	1
8	18	1
9	18	1
14	18	1
15	18	1
1	19	1
5	19	1
7	19	1
8	19	1
10	19	1
12	19	1
13	19	1
15	19	1
16	19	1
18	19	1
1	20	1
2	20	1
4	20	1
7	20	1
10	20	1
12	20	1
13	20	1
15	20	1
18	20	1
19	20	1
1	21	1
3	21	1
4	21	1
6	21	1
8	21	1
9	21	1
10	21	1
11	21	1
13	21	1
16	21	1
18	21	1
1	22	1
2	22	1
3	22	1
5	22	1
6	22	1
8	22	1
9	22	1
10	22	1
11	22	1
13	22	1
17	22	1
18	22	1
19	22	1
20	22	1
21	22	1
4	23	1
5	23	1
6	23	1
7	23	1
8	23	1
9	23	1
10	23	1
12	23	1
15	23	1
17	23	1
18	23	1
19	23	1
21	23	1
1	24	1
3	24	1
4	24	1
8	24	1
14	24	1
16	24	1
17	24	1
19	24	1
20	24	1
21	24	1
22	24	1
23	24	1
1	25	1
2	25	1
5	25	1
6	25	1
9	25	1
10	25	1
11	25	1
15	25	1
18	25	1
19	25	1
20	25	1
21	25	1
22	25	1
1	26	1
4	26	1
5	26	1
6	26	1
7	26	1
12	26	1
13	26	1
16	26	1
17	26	1
20	26	1
21	26	1
22	26	1
23	26	1
24	26	1
25	26	1
1	27	1
2	27	1
4	27	1
5	27	1
10	27	1
13	27	1
14	27	1
16	27	1
20	27	1
21	27	1
22	27	1
23	27	1
24	27	1
26	27	1
5	28	1
6	28	1
8	28	1
9	28	1
12	28	1
14	28	1
16	28	1
17	28	1
19	28	1
20	28	1
21	28	1
23	28	1
24	28	1
25	28	1
1	29	1
3	29	1
5	29	1
7	29	1
9	29	1
10	29	1
11	29	1
16	29	1
22	29	1
27	29	1
8	30	1
11	30	1
13	30	1
15	30	1
16	30	1
17	30	1
20	30	1
21	30	1
22	30	1
24	30	1
1	31	1
3	31	1
4	31	1
6	31	1
7	31	1
8	31	1
12	31	1
13	31	1
14	31	1
16	31	1
18	31	1
20	31	1
22	31	1
23	31	1
25	31	1
27	31	1
29	31	1
30	31	1
6	32	1
7	32	1
8	32	1
9	32	1
12	32	1
13	32	1
15	32	1
16	32	1
18	32	1
19	32	1
20	32	1
22	32	1
24	32	1
25	32	1
27	32	1
31	32	1
3	33	1
4	33	1
6	33	1
7	33	1
9	33	1
11	33	1
13	33	1
14	33	1
15	33	1
18	33	1
19	33	1
21	33	1
24	33	1
26	33	1
28	33	1
31	33	1
32	33	1
2	34	1
4	34	1
5	34	1
6	34	1
8	34	1
9	34	1
12	34	1
15	34	1
18	34	1
19	34	1
22	34	1
23	34	1
28	34	1
31	34	1
32	34	1
2	35	1
3	35	1
4	35	1
5	35	1
6	35	1
7	35	1
9	35	1
10	35	1
14	35	1
15	35	1
18	35	1
20	35	1
21	35	1
22	35	1
23	35	1
26	35	1
27	35	1
29	35	1
30	35	1
31	35	1
32	35	1
4	36	1
5	36	1
6	36	1
7	36	1
10	36	1
13	36	1
17	36	1
18	36	1
21	36	1
22	36	1
23	36	1
25	36	1
28	36	1
32	36	1
35	36	1
1	37	1
2	37	1
3	37	1
4	37	1
7	37	1
12	37	1
13	37	1
15	37	1
16	37	1
17	37	1
18	37	1
25	37	1
27	37	1
28	37	1
30	37	1
31	37	1
33	37	1
34	37	1
35	37	1
36	37	1
2	38	1
3	38	1
4	38	1
6	38	1
10	38	1
13	38	1
14	38	1
15	38	1
16	38	1
17	38	1
22	38	1
23	38	1
24	38	1
27	38	1
28	38	1
31	38	1
32	38	1
33	38	1
34	38	1
1	39	1
4	39	1
6	39	1
7	39	1
9	39	1
11	39	1
12	39	1
14	39	1
16	39	1
21	39	1
24	39	1
26	39	1
30	39	1
31	39	1
32	39	1
34	39	1
35	39	1
36	39	1
38	39	1
1	40	1
3	40	1
4	40	1
5	40	1
7	40	1
8	40	1
10	40	1
12	40	1
13	40	1
18	40	1
23	40	1
24	40	1
27	40	1
29	40	1
30	40	1
33	40	1
36	40	1
37	40	1
39	40	1
4	41	1
5	41	1
7	41	1
8	41	1
9	41	1
17	41	1
22	41	1
23	41	1
24	41	1
26	41	1
27	41	1
28	41	1
29	41	1
30	41	1
32	41	1
33	41	1
36	41	1
37	41	1
38	41	1
40	41	1
1	42	1
7	42	1
8	42	1
12	42	1
14	42	1
16	42	1
21	42	1
22	42	1
23	42	1
24	42	1
28	42	1
30	42	1
31	42	1
33	42	1
37	42	1
3	43	1
5	43	1
8	43	1
14	43	1
15	43	1
20	43	1
21	43	1
24	43	1
26	43	1
28	43	1
30	43	1
33	43	1
34	43	1
37	43	1
38	43	1
39	43	1
42	43	1
1	44	1
2	44	1
3	44	1
4	44	1
5	44	1
12	44	1
13	44	1
17	44	1
24	44	1
25	44	1
29	44	1
30	44	1
31	44	1
33	44	1
35	44	1
36	44	1
38	44	1
39	44	1
41	44	1
42	44	1
43	44	1
1	45	1
2	45	1
4	45	1
9	45	1
10	45	1
14	45	1
15	45	1
20	45	1
21	45	1
22	45	1
23	45	1
25	45	1
26	45	1
29	45	1
31	45	1
32	45	1
38	45	1
39	45	1
41	45	1
44	45	1
1	46	1
3	46	1
4	46	1
6	46	1
7	46	1
10	46	1
12	46	1
13	46	1
14	46	1
17	46	1
21	46	1
22	46	1
23	46	1
24	46	1
25	46	1
29	46	1
31	46	1
33	46	1
35	46	1
36	46	1
37	46	1
38	46	1
43	46	1
44	46	1
45	46	1
4	47	1
5	47	1
14	47	1
15	47	1
20	47	1
21	47	1
22	47	1
23	47	1
24	47	1
26	47	1
28	47	1
29	47	1
31	47	1
33	47	1
39	47	1
40	47	1
42	47	1
44	47	1
46	47	1
3	48	1
4	48	1
6	48	1
7	48	1
9	48	1
10	48	1
11	48	1
12	48	1
13	48	1
15	48	1
16	48	1
18	48	1
20	48	1
21	48	1
26	48	1
27	48	1
29	48	1
31	48	1
32	48	1
33	48	1
34	48	1
35	48	1
36	48	1
37	48	1
38	48	1
40	48	1
41	48	1
1	49	1
3	49	1
4	49	1
6	49	1
9	49	1
11	49	1
12	49	1
13	49	1
14	49	1
16	49	1
17	49	1
20	49	1
23	49	1
24	49	1
25	49	1
27	49	1
28	49	1
31	49	1
32	49	1
34	49	1
35	49	1
36	49	1
37	49	1
38	49	1
39	49	1
44	49	1
45	49	1
47	49	1
2	50	1
4	50	1
10	50	1
11	50	1
17	50	1
18	50	1
19	50	1
20	50	1
22	50	1
26	50	1
27	50	1
29	50	1
31	50	1
32	50	1
34	50	1
35	50	1
38	50	1
39	50	1
41	50	1
43	50	1
44	50	1
45	50	1
48	50	1
4	51	1
5	51	1
8	51	1
10	51	1
11	51	1
12	51	1
14	51	1
19	51	1
20	51	1
22	51	1
23	51	1
25	51	1
29	51	1
31	51	1
32	51	1
33	51	1
35	51	1
37	51	1
38	51	1
42	51	1
43	51	1
45	51	1
47	51	1
2	52	1
3	52	1
4	52	1
5	52	1
8	52	1
10	52	1
11	52	1
13	52	1
14	52	1
15	52	1
17	52	1
19	52	1
23	52	1
26	52	1
31	52	1
32	52	1
33	52	1
35	52	1
36	52	1
38	52	1
39	52	1
40	52	1
41	52	1
42	52	1
43	52	1
44	52	1
46	52	1
49	52	1
1	53	1
2	53	1
10	53	1
11	53	1
12	53	1
14	53	1
15	53	1
17	53	1
20	53	1
22	53	1
24	53	1
25	53	1
26	53	1
30	53	1
33	53	1
35	53	1
37	53	1
38	53	1
39	53	1
42	53	1
43	53	1
44	53	1
45	53	1
50	53	1
51	53	1
52	53	1
5	54	1
7	54	1
11	54	1
14	54	1
15	54	1
18	54	1
23	54	1
24	54	1
25	54	1
28	54	1
30	54	1
32	54	1
34	54	1
37	54	1
38	54	1
39	54	1
41	54	1
43	54	1
46	54	1
49	54	1
50	54	1
51	54	1
53	54	1
1	55	1
2	55	1
3	55	1
4	55	1
5	55	1
7	55	1
9	55	1
10	55	1
13	55	1
15	55	1
17	55	1
19	55	1
22	55	1
23	55	1
24	55	1
25	55	1
27	55	1
28	55	1
29	55	1
30	55	1
32	55	1
34	55	1
35	55	1
36	55	1
37	55	1
39	55	1
43	55	1
46	55	1
48	55	1
49	55	1
50	55	1
54	55	1
3	56	1
5	56	1
7	56	1
10	56	1
11	56	1
12	56	1
13	56	1
14	56	1
18	56	1
20	56	1
21	56	1
22	56	1
24	56	1
25	56	1
27	56	1
28	56	1
29	56	1
30	56	1
31	56	1
33	56	1
35	56	1
37	56	1
38	56	1
39	56	1
40	56	1
41	56	1
42	56	1
44	56	1
48	56	1
49	56	1
50	56	1
53	56	1
1	57	1
4	57	1
6	57	1
7	57	1
9	57	1
10	57	1
13	57	1
15	57	1
16	57	1
21	57	1
22	57	1
24	57	1
25	57	1
26	57	1
27	57	1
28	57	1
29	57	1
34	57	1
41	57	1
46	57	1
47	57	1
48	57	1
52	57	1
54	57	1
56	57	1
1	58	1
8	58	1
11	58	1
12	58	1
13	58	1
14	58	1
15	58	1
16	58	1
17	58	1
18	58	1
19	58	1
21	58	1
22	58	1
26	58	1
28	58	1
35	58	1
39	58	1
41	58	1
43	58	1
45	58	1
46	58	1
47	58	1
48	58	1
49	58	1
50	58	1
54	58	1
56	58	1
4	59	1
5	59	1
7	59	1
10	59	1
12	59	1
13	59	1
14	59	1
16	59	1
17	59	1
23	59	1
24	59	1
26	59	1
27	59	1
28	59	1
30	59	1
31	59	1
32	59	1
34	59	1
36	59	1
37	59	1
41	59	1
47	59	1
48	59	1
49	59	1
52	59	1
53	59	1
54	59	1
1	60	1
5	60	1
8	60	1
9	60	1
10	60	1
12	60	1
16	60	1
19	60	1
20	60	1
21	60	1
22	60	1
23	60	1
27	60	1
28	60	1
29	60	1
31	60	1
33	60	1
37	60	1
39	60	1
41	60	1
47	60	1
50	60	1
51	60	1
57	60	1
5	61	1
7	61	1
12	61	1
13	61	1
16	61	1
17	61	1
18	61	1
21	61	1
24	61	1
26	61	1
28	61	1
29	61	1
30	61	1
31	61	1
38	61	1
43	61	1
44	61	1
45	61	1
46	61	1
49	61	1
52	61	1
54	61	1
55	61	1
56	61	1
1	62	1
4	62	1
5	62	1
6	62	1
11	62	1
13	62	1
14	62	1
15	62	1
16	62	1
20	62	1
21	62	1
23	62	1
24	62	1
27	62	1
28	62	1
29	62	1
32	62	1
33	62	1
35	62	1
37	62	1
38	62	1
39	62	1
41	62	1
43	62	1
44	62	1
46	62	1
47	62	1
48	62	1
51	62	1
52	62	1
53	62	1
54	62	1
57	62	1
59	62	1
60	62	1
1	63	1
3	63	1
6	63	1
8	63	1
9	63	1
10	63	1
13	63	1
14	63	1
15	63	1
16	63	1
17	63	1
20	63	1
22	63	1
23	63	1
24	63	1
25	63	1
26	63	1
28	63	1
29	63	1
30	63	1
35	63	1
37	63	1
38	63	1
39	63	1
40	63	1
41	63	1
42	63	1
43	63	1
44	63	1
47	63	1
48	63	1
50	63	1
51	63	1
52	63	1
54	63	1
56	63	1
57	63	1
58	63	1
59	63	1
60	63	1
61	63	1
62	63	1
1	64	1
2	64	1
4	64	1
9	64	1
10	64	1
11	64	1
14	64	1
15	64	1
16	64	1
17	64	1
18	64	1
21	64	1
23	64	1
24	64	1
25	64	1
26	64	1
27	64	1
28	64	1
29	64	1
30	64	1
32	64	1
33	64	1
35	64	1
37	64	1
38	64	1
40	64	1
41	64	1
44	64	1
46	64	1
48	64	1
49	64	1
51	64	1
54	64	1
55	64	1
56	64	1
57	64	1
59	64	1
60	64	1
61	64	1
63	64	1
1	65	1
2	65	1
4	65	1
7	65	1
8	65	1
10	65	1
11	65	1
12	65	1
14	65	1
16	65	1
18	65	1
21	65	1
22	65	1
28	65	1
29	65	1
30	65	1
31	65	1
33	65	1
34	65	1
35	65	1
36	65	1
37	65	1
38	65	1
39	65	1
41	65	1
44	65	1
45	65	1
46	65	1
47	65	1
53	65	1
54	65	1
57	65	1
58	65	1
59	65	1
61	65	1
62	65	1
64	65	1
2	66	1
3	66	1
4	66	1
5	66	1
6	66	1
8	66	1
11	66	1
12	66	1
13	66	1
23	66	1
24	66	1
25	66	1
26	66	1
27	66	1
28	66	1
31	66	1
35	66	1
37	66	1
41	66	1
42	66	1
43	66	1
44	66	1
45	66	1
47	66	1
49	66	1
52	66	1
53	66	1
55	66	1
58	66	1
59	66	1
60	66	1
62	66	1
63	66	1
64	66	1
1	67	1
4	67	1
7	67	1
8	67	1
9	67	1
11	67	1
12	67	1
13	67	1
15	67	1
17	67	1
18	67	1
19	67	1
22	67	1
24	67	1
25	67	1
26	67	1
27	67	1
29	67	1
31	67	1
34	67	1
36	67	1
42	67	1
45	67	1
48	67	1
50	67	1
51	67	1
52	67	1
54	67	1
55	67	1
56	67	1
57	67	1
58	67	1
59	67	1
60	67	1
61	67	1
64	67	1
65	67	1
66	67	1
1	68	1
2	68	1
4	68	1
5	68	1
7	68	1
8	68	1
9	68	1
10	68	1
14	68	1
16	68	1
19	68	1
20	68	1
21	68	1
25	68	1
30	68	1
33	68	1
34	68	1
37	68	1
40	68	1
41	68	1
42	68	1
44	68	1
45	68	1
47	68	1
51	68	1
52	68	1
54	68	1
58	68	1
59	68	1
60	68	1
62	68	1
63	68	1
67	68	1
1	69	1
2	69	1
5	69	1
8	69	1
14	69	1
15	69	1
16	69	1
17	69	1
18	69	1
21	69	1
24	69	1
26	69	1
27	69	1
28	69	1
30	69	1
31	69	1
33	69	1
34	69	1
37	69	1
39	69	1
45	69	1
46	69	1
48	69	1
51	69	1
52	69	1
53	69	1
62	69	1
64	69	1
66	69	1
67	69	1
68	69	1
1	70	1
3	70	1
4	70	1
5	70	1
6	70	1
7	70	1
9	70	1
10	70	1
11	70	1
13	70	1
22	70	1
23	70	1
26	70	1
28	70	1
31	70	1
32	70	1
35	70	1
36	70	1
38	70	1
39	70	1
42	70	1
46	70	1
47	70	1
48	70	1
50	70	1
51	70	1
55	70	1
56	70	1
57	70	1
58	70	1
59	70	1
60	70	1
63	70	1
64	70	1
65	70	1
66	70	1
67	70	1
69	70	1
5	71	1
6	71	1
7	71	1
8	71	1
14	71	1
15	71	1
17	71	1
19	71	1
20	71	1
21	71	1
24	71	1
25	71	1
26	71	1
27	71	1
30	71	1
31	71	1
32	71	1
33	71	1
34	71	1
35	71	1
37	71	1
38	71	1
40	71	1
41	71	1
42	71	1
43	71	1
45	71	1
46	71	1
47	71	1
48	71	1
50	71	1
51	71	1
52	71	1
53	71	1
54	71	1
55	71	1
58	71	1
59	71	1
60	71	1
61	71	1
62	71	1
65	71	1
67	71	1
68	71	1
70	71	1
2	72	1
4	72	1
5	72	1
6	72	1
8	72	1
9	72	1
14	72	1
20	72	1
21	72	1
23	72	1
26	72	1
27	72	1
29	72	1
30	72	1
32	72	1
34	72	1
35	72	1
36	72	1
38	72	1
40	72	1
41	72	1
44	72	1
45	72	1
54	72	1
57	72	1
59	72	1
62	72	1
63	72	1
66	72	1
71	72	1
5	73	1
7	73	1
10	73	1
12	73	1
13	73	1
14	73	1
16	73	1
19	73	1
20	73	1
22	73	1
23	73	1
27	73	1
30	73	1
35	73	1
36	73	1
37	73	1
43	73	1
44	73	1
48	73	1
49	73	1
50	73	1
52	73	1
53	73	1
54	73	1
57	73	1
64	73	1
70	73	1
71	73	1
1	74	1
4	74	1
5	74	1
6	74	1
8	74	1
10	74	1
11	74	1
12	74	1
13	74	1
14	74	1
15	74	1
16	74	1
18	74	1
19	74	1
20	74	1
21	74	1
22	74	1
26	74	1
28	74	1
29	74	1
30	74	1
32	74	1
36	74	1
40	74	1
42	74	1
44	74	1
50	74	1
51	74	1
52	74	1
53	74	1
55	74	1
58	74	1
59	74	1
67	74	1
68	74	1
69	74	1
1	75	1
2	75	1
3	75	1
4	75	1
5	75	1
7	75	1
13	75	1
14	75	1
21	75	1
22	75	1
24	75	1
25	75	1
28	75	1
29	75	1
30	75	1
31	75	1
33	75	1
36	75	1
38	75	1
40	75	1
41	75	1
44	75	1
45	75	1
50	75	1
51	75	1
56	75	1
58	75	1
60	75	1
62	75	1
68	75	1
69	75	1
72	75	1
73	75	1
1	76	1
2	76	1
5	76	1
10	76	1
11	76	1
12	76	1
13	76	1
20	76	1
21	76	1
23	76	1
25	76	1
30	76	1
33	76	1
34	76	1
37	76	1
38	76	1
39	76	1
40	76	1
43	76	1
44	76	1
47	76	1
51	76	1
52	76	1
54	76	1
56	76	1
59	76	1
62	76	1
64	76	1
65	76	1
67	76	1
69	76	1
71	76	1
75	76	1
4	77	1
6	77	1
9	77	1
10	77	1
18	77	1
21	77	1
22	77	1
23	77	1
24	77	1
25	77	1
28	77	1
29	77	1
30	77	1
31	77	1
32	77	1
33	77	1
34	77	1
37	77	1
38	77	1
40	77	1
44	77	1
46	77	1
48	77	1
49	77	1
52	77	1
54	77	1
55	77	1
57	77	1
59	77	1
60	77	1
61	77	1
66	77	1
68	77	1
69	77	1
70	77	1
71	77	1
73	77	1
74	77	1
2	78	1
6	78	1
7	78	1
9	78	1
10	78	1
15	78	1
17	78	1
19	78	1
21	78	1
23	78	1
24	78	1
26	78	1
27	78	1
31	78	1
32	78	1
34	78	1
35	78	1
37	78	1
39	78	1
40	78	1
41	78	1
45	78	1
46	78	1
47	78	1
50	78	1
51	78	1
56	78	1
60	78	1
63	78	1
64	78	1
65	78	1
66	78	1
68	78	1
73	78	1
75	78	1
1	79	1
5	79	1
6	79	1
7	79	1
10	79	1
11	79	1
12	79	1
14	79	1
15	79	1
20	79	1
25	79	1
27	79	1
29	79	1
32	79	1
33	79	1
40	79	1
41	79	1
45	79	1
47	79	1
48	79	1
50	79	1
51	79	1
53	79	1
58	79	1
59	79	1
60	79	1
61	79	1
62	79	1
64	79	1
65	79	1
68	79	1
69	79	1
71	79	1
72	79	1
73	79	1
75	79	1
77	79	1
78	79	1
3	80	1
6	80	1
13	80	1
14	80	1
16	80	1
17	80	1
22	80	1
26	80	1
28	80	1
31	80	1
34	80	1
35	80	1
37	80	1
38	80	1
39	80	1
40	80	1
41	80	1
42	80	1
43	80	1
44	80	1
45	80	1
46	80	1
47	80	1
49	80	1
51	80	1
55	80	1
59	80	1
62	80	1
63	80	1
65	80	1
68	80	1
69	80	1
70	80	1
71	80	1
73	80	1
75	80	1
78	80	1
79	80	1
1	81	1
3	81	1
4	81	1
5	81	1
6	81	1
8	81	1
11	81	1
13	81	1
14	81	1
16	81	1
19	81	1
22	81	1
23	81	1
24	81	1
26	81	1
28	81	1
29	81	1
31	81	1
33	81	1
37	81	1
42	81	1
43	81	1
44	81	1
46	81	1
50	81	1
51	81	1
54	81	1
57	81	1
59	81	1
62	81	1
68	81	1
70	81	1
75	81	1
77	81	1
78	81	1
1	82	1
4	82	1
7	82	1
9	82	1
10	82	1
13	82	1
16	82	1
20	82	1
25	82	1
31	82	1
33	82	1
34	82	1
36	82	1
37	82	1
38	82	1
42	82	1
43	82	1
45	82	1
46	82	1
49	82	1
50	82	1
52	82	1
53	82	1
55	82	1
57	82	1
58	82	1
59	82	1
60	82	1
61	82	1
62	82	1
65	82	1
67	82	1
70	82	1
73	82	1
76	82	1
81	82	1
5	83	1
6	83	1
7	83	1
13	83	1
15	83	1
17	83	1
20	83	1
23	83	1
24	83	1
28	83	1
30	83	1
33	83	1
35	83	1
36	83	1
38	83	1
39	83	1
44	83	1
47	83	1
48	83	1
50	83	1
53	83	1
54	83	1
56	83	1
59	83	1
60	83	1
61	83	1
62	83	1
65	83	1
66	83	1
70	83	1
72	83	1
73	83	1
78	83	1
80	83	1
2	84	1
5	84	1
8	84	1
9	84	1
11	84	1
13	84	1
14	84	1
15	84	1
19	84	1
20	84	1
21	84	1
25	84	1
26	84	1
28	84	1
29	84	1
33	84	1
35	84	1
38	84	1
40	84	1
43	84	1
45	84	1
46	84	1
51	84	1
53	84	1
54	84	1
58	84	1
62	84	1
65	84	1
68	84	1
69	84	1
70	84	1
73	84	1
78	84	1
80	84	1
81	84	1
82	84	1
1	85	1
2	85	1
4	85	1
5	85	1
7	85	1
9	85	1
10	85	1
11	85	1
12	85	1
14	85	1
17	85	1
18	85	1
22	85	1
23	85	1
24	85	1
26	85	1
28	85	1
30	85	1
32	85	1
33	85	1
35	85	1
36	85	1
37	85	1
38	85	1
42	85	1
45	85	1
47	85	1
49	85	1
52	85	1
54	85	1
55	85	1
57	85	1
58	85	1
60	85	1
62	85	1
63	85	1
64	85	1
66	85	1
68	85	1
69	85	1
73	85	1
74	85	1
76	85	1
78	85	1
80	85	1
81	85	1
82	85	1
84	85	1
3	86	1
5	86	1
6	86	1
8	86	1
10	86	1
11	86	1
13	86	1
15	86	1
20	86	1
22	86	1
23	86	1
26	86	1
27	86	1
28	86	1
29	86	1
30	86	1
32	86	1
34	86	1
35	86	1
36	86	1
41	86	1
43	86	1
45	86	1
46	86	1
47	86	1
48	86	1
51	86	1
53	86	1
54	86	1
61	86	1
62	86	1
63	86	1
64	86	1
65	86	1
67	86	1
69	86	1
70	86	1
71	86	1
72	86	1
75	86	1
78	86	1
81	86	1
84	86	1
85	86	1
1	87	1
2	87	1
3	87	1
8	87	1
9	87	1
13	87	1
17	87	1
18	87	1
19	87	1
24	87	1
28	87	1
31	87	1
32	87	1
33	87	1
34	87	1
35	87	1
36	87	1
38	87	1
40	87	1
42	87	1
43	87	1
44	87	1
45	87	1
47	87	1
51	87	1
53	87	1
55	87	1
56	87	1
58	87	1
59	87	1
60	87	1
61	87	1
62	87	1
63	87	1
64	87	1
65	87	1
68	87	1
69	87	1
72	87	1
82	87	1
83	87	1
85	87	1
2	88	1
4	88	1
6	88	1
7	88	1
8	88	1
9	88	1
10	88	1
12	88	1
13	88	1
14	88	1
15	88	1
17	88	1
18	88	1
19	88	1
20	88	1
22	88	1
24	88	1
26	88	1
28	88	1
29	88	1
31	88	1
32	88	1
33	88	1
35	88	1
36	88	1
37	88	1
38	88	1
40	88	1
41	88	1
42	88	1
45	88	1
47	88	1
48	88	1
49	88	1
52	88	1
54	88	1
57	88	1
58	88	1
62	88	1
63	88	1
64	88	1
65	88	1
67	88	1
68	88	1
69	88	1
71	88	1
72	88	1
73	88	1
74	88	1
79	88	1
82	88	1
85	88	1
86	88	1
2	89	1
3	89	1
5	89	1
6	89	1
8	89	1
11	89	1
12	89	1
13	89	1
14	89	1
15	89	1
16	89	1
17	89	1
22	89	1
24	89	1
31	89	1
33	89	1
35	89	1
39	89	1
40	89	1
42	89	1
43	89	1
44	89	1
45	89	1
46	89	1
47	89	1
49	89	1
51	89	1
52	89	1
53	89	1
54	89	1
55	89	1
56	89	1
57	89	1
58	89	1
60	89	1
64	89	1
66	89	1
67	89	1
68	89	1
69	89	1
71	89	1
74	89	1
75	89	1
76	89	1
79	89	1
81	89	1
82	89	1
83	89	1
84	89	1
85	89	1
88	89	1
1	90	1
2	90	1
10	90	1
11	90	1
13	90	1
20	90	1
22	90	1
23	90	1
24	90	1
28	90	1
31	90	1
32	90	1
33	90	1
34	90	1
35	90	1
37	90	1
39	90	1
40	90	1
44	90	1
46	90	1
47	90	1
51	90	1
52	90	1
53	90	1
54	90	1
55	90	1
57	90	1
58	90	1
60	90	1
61	90	1
64	90	1
66	90	1
67	90	1
71	90	1
78	90	1
79	90	1
80	90	1
86	90	1
87	90	1
89	90	1
2	91	1
3	91	1
4	91	1
5	91	1
12	91	1
13	91	1
16	91	1
17	91	1
21	91	1
23	91	1
24	91	1
25	91	1
26	91	1
27	91	1
28	91	1
30	91	1
33	91	1
35	91	1
37	91	1
38	91	1
40	91	1
42	91	1
45	91	1
50	91	1
52	91	1
53	91	1
54	91	1
55	91	1
56	91	1
60	91	1
62	91	1
63	91	1
64	91	1
65	91	1
66	91	1
67	91	1
68	91	1
72	91	1
73	91	1
76	91	1
80	91	1
84	91	1
85	91	1
87	91	1
88	91	1
90	91	1
1	92	1
2	92	1
12	92	1
13	92	1
14	92	1
15	92	1
19	92	1
22	92	1
23	92	1
24	92	1
27	92	1
29	92	1
30	92	1
32	92	1
34	92	1
35	92	1
36	92	1
37	92	1
38	92	1
39	92	1
43	92	1
45	92	1
47	92	1
49	92	1
51	92	1
52	92	1
53	92	1
56	92	1
58	92	1
59	92	1
63	92	1
64	92	1
65	92	1
67	92	1
68	92	1
73	92	1
74	92	1
76	92	1
77	92	1
78	92	1
79	92	1
80	92	1
81	92	1
82	92	1
84	92	1
85	92	1
86	92	1
88	92	1
89	92	1
2	93	1
7	93	1
9	93	1
11	93	1
17	93	1
20	93	1
23	93	1
24	93	1
25	93	1
26	93	1
30	93	1
31	93	1
33	93	1
36	93	1
37	93	1
44	93	1
45	93	1
46	93	1
48	93	1
52	93	1
53	93	1
55	93	1
57	93	1
58	93	1
59	93	1
61	93	1
62	93	1
64	93	1
65	93	1
70	93	1
73	93	1
74	93	1
75	93	1
77	93	1
78	93	1
80	93	1
81	93	1
83	93	1
87	93	1
4	94	1
6	94	1
7	94	1
8	94	1
10	94	1
12	94	1
14	94	1
16	94	1
19	94	1
21	94	1
22	94	1
27	94	1
31	94	1
32	94	1
34	94	1
35	94	1
38	94	1
40	94	1
41	94	1
42	94	1
45	94	1
46	94	1
47	94	1
50	94	1
51	94	1
54	94	1
55	94	1
59	94	1
60	94	1
63	94	1
68	94	1
73	94	1
74	94	1
75	94	1
76	94	1
79	94	1
80	94	1
82	94	1
83	94	1
88	94	1
90	94	1
91	94	1
1	95	1
3	95	1
6	95	1
10	95	1
12	95	1
17	95	1
19	95	1
21	95	1
23	95	1
24	95	1
29	95	1
31	95	1
32	95	1
33	95	1
35	95	1
36	95	1
37	95	1
38	95	1
45	95	1
46	95	1
47	95	1
55	95	1
57	95	1
60	95	1
62	95	1
63	95	1
65	95	1
68	95	1
71	95	1
74	95	1
76	95	1
77	95	1
80	95	1
83	95	1
85	95	1
87	95	1
89	95	1
92	95	1
93	95	1
3	96	1
6	96	1
8	96	1
11	96	1
15	96	1
16	96	1
17	96	1
21	96	1
23	96	1
24	96	1
25	96	1
28	96	1
29	96	1
30	96	1
31	96	1
32	96	1
35	96	1
36	96	1
41	96	1
44	96	1
45	96	1
46	96	1
48	96	1
50	96	1
52	96	1
53	96	1
54	96	1
56	96	1
59	96	1
62	96	1
63	96	1
64	96	1
66	96	1
68	96	1
69	96	1
71	96	1
72	96	1
74	96	1
75	96	1
76	96	1
77	96	1
78	96	1
80	96	1
81	96	1
82	96	1
83	96	1
85	96	1
86	96	1
87	96	1
88	96	1
90	96	1
91	96	1
92	96	1
93	96	1
5	97	1
6	97	1
8	97	1
9	97	1
10	97	1
11	97	1
14	97	1
16	97	1
18	97	1
19	97	1
21	97	1
25	97	1
30	97	1
31	97	1
33	97	1
35	97	1
37	97	1
40	97	1
42	97	1
43	97	1
48	97	1
50	97	1
52	97	1
53	97	1
54	97	1
56	97	1
58	97	1
59	97	1
69	97	1
74	97	1
75	97	1
76	97	1
79	97	1
80	97	1
82	97	1
84	97	1
85	97	1
87	97	1
89	97	1
91	97	1
93	97	1
95	97	1
2	98	1
3	98	1
4	98	1
5	98	1
7	98	1
8	98	1
9	98	1
10	98	1
12	98	1
13	98	1
14	98	1
15	98	1
17	98	1
23	98	1
25	98	1
26	98	1
27	98	1
28	98	1
29	98	1
32	98	1
38	98	1
39	98	1
45	98	1
47	98	1
49	98	1
50	98	1
53	98	1
54	98	1
56	98	1
58	98	1
59	98	1
60	98	1
61	98	1
65	98	1
67	98	1
70	98	1
76	98	1
79	98	1
82	98	1
83	98	1
84	98	1
86	98	1
89	98	1
90	98	1
93	98	1
94	98	1
96	98	1
1	99	1
2	99	1
3	99	1
5	99	1
8	99	1
9	99	1
11	99	1
12	99	1
13	99	1
15	99	1
16	99	1
17	99	1
18	99	1
20	99	1
24	99	1
27	99	1
28	99	1
29	99	1
32	99	1
33	99	1
34	99	1
35	99	1
37	99	1
38	99	1
40	99	1
41	99	1
42	99	1
45	99	1
46	99	1
47	99	1
48	99	1
49	99	1
52	99	1
59	99	1
63	99	1
66	99	1
69	99	1
72	99	1
73	99	1
74	99	1
75	99	1
76	99	1
77	99	1
79	99	1
80	99	1
81	99	1
82	99	1
84	99	1
85	99	1
89	99	1
90	99	1
91	99	1
93	99	1
2	100	1
3	100	1
5	100	1
7	100	1
8	100	1
10	100	1
12	100	1
14	100	1
18	100	1
20	100	1
22	100	1
24	100	1
26	100	1
27	100	1
28	100	1
36	100	1
37	100	1
38	100	1
39	100	1
41	100	1
44	100	1
45	100	1
46	100	1
48	100	1
49	100	1
50	100	1
52	100	1
53	100	1
55	100	1
56	100	1
57	100	1
65	100	1
66	100	1
67	100	1
69	100	1
71	100	1
73	100	1
74	100	1
75	100	1
78	100	1
79	100	1
81	100	1
83	100	1
85	100	1
86	100	1
88	100	1
91	100	1
93	100	1
94	100	1
96	100	1
99	100	1
